34
3
16 4 4 
0.0 0.0 0.0 0.0 0.0 0.0 0.0 0.0 0.0 0.0 0.0 0.0 0.0 0.0 0.0 0.0 0.0 0.0 0.0 0.0 0.0 0.0 0.0 0.0 0.0 0.0 0.0 0.0 0.0 0.0 0.0 0.0 1.0 1.0 
0 1 1 5 -0.003970255963099259
0 1 1 6 0.03531895299179083
0 1 1 7 -0.03145636227677201
0 1 1 8 -0.05048083431120876
0 1 1 14 -0.07095250184106605
0 1 1 15 0.09173935855919611
0 1 1 16 0.004436584447687634
0 1 2 5 0.03531895299179083
0 1 2 6 0.06189955915760126
0 1 2 7 0.07075679721778538
0 1 2 8 0.009589032166640886
0 1 2 13 0.07095250184106605
0 1 2 15 0.07589436862891549
0 1 2 16 -0.05334944672799251
0 1 3 5 -0.03145636227677201
0 1 3 6 0.07075679721778538
0 1 3 7 0.003970255963098995
0 1 3 8 -0.03531895299179079
0 1 3 13 -0.09173935855919611
0 1 3 14 -0.07589436862891549
0 1 3 16 0.07095250184106597
0 1 4 5 -0.05048083431120876
0 1 4 6 0.009589032166640886
0 1 4 7 -0.03531895299179079
0 1 4 8 -0.06189955915760145
0 1 4 13 -0.004436584447687634
0 1 4 14 0.05334944672799251
0 1 4 15 -0.07095250184106597
0 1 5 10 -0.07095250184106605
0 1 5 11 0.09173935855919611
0 1 5 12 0.004436584447687634
0 1 6 9 0.07095250184106605
0 1 6 11 0.07589436862891549
0 1 6 12 -0.05334944672799251
0 1 7 9 -0.09173935855919611
0 1 7 10 -0.07589436862891549
0 1 7 12 0.07095250184106597
0 1 8 9 -0.004436584447687634
0 1 8 10 0.05334944672799251
0 1 8 11 -0.07095250184106597
0 1 9 13 -0.003970255963099259
0 1 9 14 0.03531895299179083
0 1 9 15 -0.03145636227677201
0 1 9 16 -0.05048083431120876
0 1 10 13 0.03531895299179083
0 1 10 14 0.06189955915760126
0 1 10 15 0.07075679721778538
0 1 10 16 0.009589032166640886
0 1 11 13 -0.03145636227677201
0 1 11 14 0.07075679721778538
0 1 11 15 0.003970255963098995
0 1 11 16 -0.03531895299179079
0 1 12 13 -0.05048083431120876
0 1 12 14 0.009589032166640886
0 1 12 15 -0.03531895299179079
0 1 12 16 -0.06189955915760145
1 1 1 1 0.5
1 1 9 9 0.5
1 2 1 1 -0.5
1 2 3 3 -0.5
2 1 5 5 0.5
2 1 13 13 0.5
2 3 1 1 -0.5
2 3 3 3 -0.5
3 1 1 2 0.25
3 1 9 10 0.25
3 2 1 2 -0.25
3 2 3 4 -0.25
4 1 5 6 0.25
4 1 13 14 0.25
4 2 1 2 -0.25
4 2 3 4 -0.25
5 1 1 10 -0.25
5 1 2 9 0.25
5 2 1 4 0.25
5 2 2 3 -0.25
6 1 5 14 -0.25
6 1 6 13 0.25
6 2 1 4 0.25
6 2 2 3 -0.25
7 1 2 2 0.5
7 1 10 10 0.5
7 2 2 2 -0.5
7 2 4 4 -0.5
8 1 6 6 0.5
8 1 14 14 0.5
8 3 2 2 -0.5
8 3 4 4 -0.5
9 1 1 3 0.5
9 1 9 11 0.5
10 1 5 7 0.5
10 1 13 15 0.5
11 1 1 11 -0.5
11 1 3 9 0.5
12 1 5 15 -0.5
12 1 7 13 0.5
13 1 1 4 0.5
13 1 9 12 0.5
14 1 5 8 0.5
14 1 13 16 0.5
15 1 1 12 -0.5
15 1 4 9 0.5
16 1 5 16 -0.5
16 1 8 13 0.5
17 1 2 3 0.5
17 1 10 11 0.5
18 1 6 7 0.5
18 1 14 15 0.5
19 1 2 11 -0.5
19 1 3 10 0.5
20 1 6 15 -0.5
20 1 7 14 0.5
21 1 2 4 0.5
21 1 10 12 0.5
22 1 6 8 0.5
22 1 14 16 0.5
23 1 2 12 -0.5
23 1 4 10 0.5
24 1 6 16 -0.5
24 1 8 14 0.5
25 1 3 3 0.5
25 1 11 11 0.5
25 2 1 1 -0.5
25 2 3 3 -0.5
26 1 7 7 0.5
26 1 15 15 0.5
26 3 1 1 -0.5
26 3 3 3 -0.5
27 1 3 4 0.25
27 1 11 12 0.25
27 2 1 2 -0.25
27 2 3 4 -0.25
28 1 7 8 0.25
28 1 15 16 0.25
28 2 1 2 -0.25
28 2 3 4 -0.25
29 1 3 12 -0.25
29 1 4 11 0.25
29 2 1 4 0.25
29 2 2 3 -0.25
30 1 7 16 -0.25
30 1 8 15 0.25
30 2 1 4 0.25
30 2 2 3 -0.25
31 1 4 4 0.5
31 1 12 12 0.5
31 2 2 2 -0.5
31 2 4 4 -0.5
32 1 8 8 0.5
32 1 16 16 0.5
32 3 2 2 -0.5
32 3 4 4 -0.5
33 2 1 1 0.5
33 2 2 2 0.5
33 2 3 3 0.5
33 2 4 4 0.5
34 3 1 1 0.5
34 3 2 2 0.5
34 3 3 3 0.5
34 3 4 4 0.5
